; DUP3 SWAP2 DUP3 SWAP2 DUP3 SWAP2 => DUP3 DUP4 SWAP2 DUP5 SWAP4
(set-option :produce-proofs true)
; 
(set-info :status unknown)
(declare-fun storage_t ((_ BitVec 256) (_ BitVec 256) (_ BitVec 256) Int (_ BitVec 256)) (_ BitVec 256))
(declare-fun storage_s ((_ BitVec 256) (_ BitVec 256) (_ BitVec 256) Int (_ BitVec 256)) (_ BitVec 256))
(declare-fun exc_halt_t (Int) Bool)
(declare-fun exc_halt_s (Int) Bool)
(declare-fun stack_t ((_ BitVec 256) (_ BitVec 256) (_ BitVec 256) Int (_ BitVec 6)) (_ BitVec 256))
(declare-fun stack_s ((_ BitVec 256) (_ BitVec 256) (_ BitVec 256) Int (_ BitVec 6)) (_ BitVec 256))
(declare-fun sc_t (Int) (_ BitVec 6))
(declare-fun sc_s (Int) (_ BitVec 6))
(declare-fun used_gas_t ((_ BitVec 256) (_ BitVec 256) (_ BitVec 256) Int) Int)
(declare-fun used_gas_s ((_ BitVec 256) (_ BitVec 256) (_ BitVec 256) Int) Int)
(assert
 (exists ((x_0 (_ BitVec 256)) (x_1 (_ BitVec 256)) (x_2 (_ BitVec 256)) )(let (($x9518 (forall ((w (_ BitVec 256)) )(let ((?x7456 (storage_t x_0 x_1 x_2 5 w)))
 (let ((?x6819 (storage_s x_0 x_1 x_2 6 w)))
 (= ?x6819 ?x7456))))
 ))
 (let (($x1885 (exc_halt_t 5)))
 (let (($x772 (exc_halt_s 6)))
 (let (($x11108 (= $x772 $x1885)))
 (let (($x210 (forall ((n (_ BitVec 6)) )(let ((?x11378 (stack_t x_0 x_1 x_2 5 n)))
 (let ((?x9068 (stack_s x_0 x_1 x_2 6 n)))
 (let (($x10189 (= ?x9068 ?x11378)))
 (let ((?x8961 (sc_t 5)))
 (let (($x5791 (bvsle ?x8961 n)))
 (or $x5791 $x10189)))))))
 ))
 (let ((?x8961 (sc_t 5)))
 (let ((?x926 (sc_s 6)))
 (let (($x5889 (= ?x926 ?x8961)))
 (let ((?x6003 (used_gas_t x_0 x_1 x_2 0)))
 (let ((?x3840 (used_gas_s x_0 x_1 x_2 0)))
 (let (($x10790 (= ?x3840 ?x6003)))
 (let (($x1556 (forall ((w (_ BitVec 256)) )(let ((?x10283 (storage_t x_0 x_1 x_2 0 w)))
 (let ((?x8426 (storage_s x_0 x_1 x_2 0 w)))
 (= ?x8426 ?x10283))))
 ))
 (let (($x56 (exc_halt_t 0)))
 (let (($x57 (exc_halt_s 0)))
 (let (($x58 (= $x57 $x56)))
 (let (($x6472 (forall ((n (_ BitVec 6)) )(let ((?x7421 (stack_t x_0 x_1 x_2 0 n)))
 (let ((?x1056 (stack_s x_0 x_1 x_2 0 n)))
 (let (($x3279 (= ?x1056 ?x7421)))
 (let ((?x63 (sc_t 0)))
 (let (($x1948 (bvsle ?x63 n)))
 (or $x1948 $x3279)))))))
 ))
 (let ((?x63 (sc_t 0)))
 (let ((?x72 (sc_s 0)))
 (let (($x73 (= ?x72 ?x63)))
 (let (($x8233 (= $x1885 (or (exc_halt_t 4) (not (bvsle (_ bv0 6) (bvadd (_ bv59 6) (sc_t 4))))))))
 (let (($x10855 (forall ((w (_ BitVec 256)) )(let ((?x5905 (storage_t x_0 x_1 x_2 4 w)))
 (let ((?x7456 (storage_t x_0 x_1 x_2 5 w)))
 (= ?x7456 ?x5905))))
 ))
 (let (($x1674 (forall ((n (_ BitVec 6)) )(let ((?x5969 (stack_t x_0 x_1 x_2 4 n)))
 (let ((?x11378 (stack_t x_0 x_1 x_2 5 n)))
 (let ((?x4818 (sc_t 4)))
 (let ((?x36 (bvadd (_ bv59 6) ?x4818)))
 (let (($x881 (bvsle ?x36 n)))
 (or $x881 (= ?x11378 ?x5969))))))))
 ))
 (let ((?x4818 (sc_t 4)))
 (let (($x9587 (= ?x8961 ?x4818)))
 (let (($x650 (= (used_gas_t x_0 x_1 x_2 5) (+ 3 (used_gas_t x_0 x_1 x_2 4)))))
 (let (($x2691 (= (stack_t x_0 x_1 x_2 5 (bvadd (_ bv62 6) ?x8961)) (stack_t x_0 x_1 x_2 4 (bvadd (_ bv62 6) ?x4818)))))
 (let (($x5010 (= (stack_t x_0 x_1 x_2 5 (bvadd (_ bv61 6) ?x8961)) (stack_t x_0 x_1 x_2 4 (bvadd (_ bv61 6) ?x4818)))))
 (let (($x6944 (= (stack_t x_0 x_1 x_2 5 (bvadd (_ bv60 6) ?x8961)) (stack_t x_0 x_1 x_2 4 (bvadd (_ bv60 6) ?x4818)))))
 (let ((?x9817 (bvadd (_ bv63 6) ?x4818)))
 (let ((?x8153 (stack_t x_0 x_1 x_2 4 ?x9817)))
 (let (($x3833 (= (stack_t x_0 x_1 x_2 5 (bvadd (_ bv63 6) ?x8961)) (stack_t x_0 x_1 x_2 4 (bvadd (_ bv59 6) ?x4818)))))
 (let (($x9074 (not (= ((_ extract 6 6) (bvadd (_ bv1 7) (concat (_ bv0 1) (sc_t 3)))) (_ bv0 1)))))
 (let (($x6783 (exc_halt_t 3)))
 (let (($x7854 (exc_halt_t 4)))
 (let (($x10392 (forall ((w (_ BitVec 256)) )(let ((?x2886 (storage_t x_0 x_1 x_2 3 w)))
 (let ((?x5905 (storage_t x_0 x_1 x_2 4 w)))
 (= ?x5905 ?x2886))))
 ))
 (let (($x4006 (forall ((n (_ BitVec 6)) )(let ((?x1253 (stack_t x_0 x_1 x_2 3 n)))
 (let ((?x5969 (stack_t x_0 x_1 x_2 4 n)))
 (or (bvsle (bvadd (_ bv59 6) (sc_t 3)) n) (= ?x5969 ?x1253)))))
 ))
 (let (($x11075 (= ?x4818 (bvadd (_ bv1 6) (sc_t 3)))))
 (let ((?x3517 (used_gas_t x_0 x_1 x_2 4)))
 (let ((?x6438 (sc_t 3)))
 (let ((?x5320 (bvadd (_ bv63 6) ?x6438)))
 (let ((?x5562 (stack_t x_0 x_1 x_2 3 ?x5320)))
 (let ((?x9235 (bvadd (_ bv62 6) ?x6438)))
 (let ((?x6844 (stack_t x_0 x_1 x_2 3 ?x9235)))
 (let ((?x9107 (bvadd (_ bv61 6) ?x6438)))
 (let ((?x4102 (stack_t x_0 x_1 x_2 3 ?x9107)))
 (let (($x7364 (= (stack_t x_0 x_1 x_2 4 (bvadd (_ bv60 6) ?x6438)) (stack_t x_0 x_1 x_2 3 (bvadd (_ bv60 6) ?x6438)))))
 (let ((?x10451 (bvadd (_ bv59 6) ?x6438)))
 (let ((?x9113 (stack_t x_0 x_1 x_2 3 ?x10451)))
 (let (($x1330 (= $x6783 (or (exc_halt_t 2) (not (bvsle (_ bv0 6) (bvadd (_ bv61 6) (sc_t 2))))))))
 (let (($x10244 (forall ((w (_ BitVec 256)) )(let ((?x2775 (storage_t x_0 x_1 x_2 2 w)))
 (let ((?x2886 (storage_t x_0 x_1 x_2 3 w)))
 (= ?x2886 ?x2775))))
 ))
 (let (($x5123 (forall ((n (_ BitVec 6)) )(let ((?x2714 (sc_t 2)))
 (let ((?x1404 (bvadd (_ bv61 6) ?x2714)))
 (let (($x9583 (bvsle ?x1404 n)))
 (let ((?x4837 (stack_t x_0 x_1 x_2 2 n)))
 (let ((?x1253 (stack_t x_0 x_1 x_2 3 n)))
 (or (= ?x1253 ?x4837) $x9583)))))))
 ))
 (let ((?x2714 (sc_t 2)))
 (let (($x6801 (= ?x6438 ?x2714)))
 (let ((?x1941 (used_gas_t x_0 x_1 x_2 3)))
 (let (($x8377 (exc_halt_t 1)))
 (let (($x2331 (not (= ((_ extract 6 6) (bvadd (_ bv1 7) (concat (_ bv0 1) (sc_t 1)))) (_ bv0 1)))))
 (let (($x2163 (exc_halt_t 2)))
 (let (($x2336 (forall ((w (_ BitVec 256)) )(let ((?x4666 (storage_t x_0 x_1 x_2 1 w)))
 (let ((?x2775 (storage_t x_0 x_1 x_2 2 w)))
 (= ?x2775 ?x4666))))
 ))
 (let (($x8557 (forall ((n (_ BitVec 6)) )(let ((?x4713 (stack_t x_0 x_1 x_2 1 n)))
 (let ((?x4837 (stack_t x_0 x_1 x_2 2 n)))
 (or (bvsle (bvadd (_ bv60 6) (sc_t 1)) n) (= ?x4837 ?x4713)))))
 ))
 (let (($x8154 (= ?x2714 (bvadd (_ bv1 6) (sc_t 1)))))
 (let ((?x173 (used_gas_t x_0 x_1 x_2 2)))
 (let ((?x7154 (sc_t 1)))
 (let ((?x2146 (bvadd (_ bv63 6) ?x7154)))
 (let ((?x2783 (stack_t x_0 x_1 x_2 1 ?x2146)))
 (let (($x7790 (= (stack_t x_0 x_1 x_2 2 (bvadd (_ bv62 6) ?x7154)) (stack_t x_0 x_1 x_2 1 (bvadd (_ bv62 6) ?x7154)))))
 (let (($x4280 (= (stack_t x_0 x_1 x_2 2 (bvadd (_ bv61 6) ?x7154)) (stack_t x_0 x_1 x_2 1 (bvadd (_ bv61 6) ?x7154)))))
 (let ((?x6638 (bvadd (_ bv60 6) ?x7154)))
 (let ((?x6248 (stack_t x_0 x_1 x_2 1 ?x6638)))
 (let (($x10372 (not (= ((_ extract 6 6) (bvadd (_ bv1 7) (concat (_ bv0 1) ?x63))) (_ bv0 1)))))
 (let (($x5050 (forall ((w (_ BitVec 256)) )(let ((?x10283 (storage_t x_0 x_1 x_2 0 w)))
 (let ((?x4666 (storage_t x_0 x_1 x_2 1 w)))
 (= ?x4666 ?x10283))))
 ))
 (let (($x7820 (forall ((n (_ BitVec 6)) )(let ((?x7421 (stack_t x_0 x_1 x_2 0 n)))
 (let ((?x4713 (stack_t x_0 x_1 x_2 1 n)))
 (or (bvsle (bvadd (_ bv61 6) (sc_t 0)) n) (= ?x4713 ?x7421)))))
 ))
 (let (($x10065 (= ?x7154 (bvadd (_ bv1 6) ?x63))))
 (let (($x1188 (= (stack_t x_0 x_1 x_2 1 (bvadd (_ bv63 6) ?x63)) (stack_t x_0 x_1 x_2 0 (bvadd (_ bv63 6) ?x63)))))
 (let (($x6934 (= (stack_t x_0 x_1 x_2 1 (bvadd (_ bv62 6) ?x63)) (stack_t x_0 x_1 x_2 0 (bvadd (_ bv62 6) ?x63)))))
 (let ((?x8751 (bvadd (_ bv61 6) ?x63)))
 (let ((?x9184 (stack_t x_0 x_1 x_2 0 ?x8751)))
 (let (($x3213 (= $x772 (or (exc_halt_s 5) (not (bvsle (_ bv0 6) (bvadd (_ bv61 6) (sc_s 5))))))))
 (let (($x4551 (forall ((w (_ BitVec 256)) )(let ((?x10825 (storage_s x_0 x_1 x_2 5 w)))
 (let ((?x6819 (storage_s x_0 x_1 x_2 6 w)))
 (= ?x6819 ?x10825))))
 ))
 (let (($x11843 (forall ((n (_ BitVec 6)) )(let ((?x458 (stack_s x_0 x_1 x_2 5 n)))
 (let ((?x9068 (stack_s x_0 x_1 x_2 6 n)))
 (or (= ?x9068 ?x458) (bvsle (bvadd (_ bv61 6) (sc_s 5)) n)))))
 ))
 (let ((?x4319 (sc_s 5)))
 (let (($x9052 (= ?x926 ?x4319)))
 (let (($x4099 (= (used_gas_s x_0 x_1 x_2 6) (+ 3 (used_gas_s x_0 x_1 x_2 5)))))
 (let (($x7809 (= (stack_s x_0 x_1 x_2 6 (bvadd (_ bv62 6) ?x926)) (stack_s x_0 x_1 x_2 5 (bvadd (_ bv62 6) ?x4319)))))
 (let ((?x4217 (bvadd (_ bv63 6) ?x4319)))
 (let ((?x435 (stack_s x_0 x_1 x_2 5 ?x4217)))
 (let (($x4502 (= (stack_s x_0 x_1 x_2 6 (bvadd (_ bv63 6) ?x926)) (stack_s x_0 x_1 x_2 5 (bvadd (_ bv61 6) ?x4319)))))
 (let (($x7172 (exc_halt_s 4)))
 (let (($x4340 (not (= ((_ extract 6 6) (bvadd (_ bv1 7) (concat (_ bv0 1) (sc_s 4)))) (_ bv0 1)))))
 (let (($x11317 (exc_halt_s 5)))
 (let (($x8113 (= $x11317 (or (not (bvsle (_ bv0 6) (bvadd (_ bv61 6) (sc_s 4)))) $x4340 $x7172))))
 (let (($x8073 (forall ((w (_ BitVec 256)) )(let ((?x10463 (storage_s x_0 x_1 x_2 4 w)))
 (let ((?x10825 (storage_s x_0 x_1 x_2 5 w)))
 (= ?x10825 ?x10463))))
 ))
 (let (($x9854 (forall ((n (_ BitVec 6)) )(let ((?x4305 (sc_s 4)))
 (let ((?x6818 (bvadd (_ bv61 6) ?x4305)))
 (let (($x3410 (bvsle ?x6818 n)))
 (let ((?x9447 (stack_s x_0 x_1 x_2 4 n)))
 (let ((?x458 (stack_s x_0 x_1 x_2 5 n)))
 (or (= ?x458 ?x9447) $x3410)))))))
 ))
 (let (($x7619 (= ?x4319 (bvadd (_ bv1 6) (sc_s 4)))))
 (let ((?x2692 (used_gas_s x_0 x_1 x_2 5)))
 (let ((?x4305 (sc_s 4)))
 (let ((?x6098 (bvadd (_ bv63 6) ?x4305)))
 (let ((?x6435 (stack_s x_0 x_1 x_2 4 ?x6098)))
 (let ((?x2417 (bvadd (_ bv62 6) ?x4305)))
 (let ((?x9131 (stack_s x_0 x_1 x_2 4 ?x2417)))
 (let ((?x6818 (bvadd (_ bv61 6) ?x4305)))
 (let ((?x7693 (stack_s x_0 x_1 x_2 4 ?x6818)))
 (let (($x1666 (= $x7172 (or (exc_halt_s 3) (not (bvsle (_ bv0 6) (bvadd (_ bv61 6) (sc_s 3))))))))
 (let (($x8146 (forall ((w (_ BitVec 256)) )(let ((?x4613 (storage_s x_0 x_1 x_2 3 w)))
 (let ((?x10463 (storage_s x_0 x_1 x_2 4 w)))
 (= ?x10463 ?x4613))))
 ))
 (let (($x4106 (forall ((n (_ BitVec 6)) )(let ((?x275 (sc_s 3)))
 (let ((?x9454 (bvadd (_ bv61 6) ?x275)))
 (let (($x4294 (bvsle ?x9454 n)))
 (let ((?x9199 (stack_s x_0 x_1 x_2 3 n)))
 (let ((?x9447 (stack_s x_0 x_1 x_2 4 n)))
 (or (= ?x9447 ?x9199) $x4294)))))))
 ))
 (let ((?x275 (sc_s 3)))
 (let (($x1480 (= ?x4305 ?x275)))
 (let ((?x1269 (used_gas_s x_0 x_1 x_2 4)))
 (let (($x11463 (not (= ((_ extract 6 6) (bvadd (_ bv1 7) (concat (_ bv0 1) (sc_s 2)))) (_ bv0 1)))))
 (let (($x247 (exc_halt_s 2)))
 (let (($x292 (exc_halt_s 3)))
 (let (($x9013 (= $x292 (or $x247 (not (bvsle (_ bv0 6) (bvadd (_ bv61 6) (sc_s 2)))) $x11463))))
 (let (($x11404 (forall ((w (_ BitVec 256)) )(let ((?x10173 (storage_s x_0 x_1 x_2 2 w)))
 (let ((?x4613 (storage_s x_0 x_1 x_2 3 w)))
 (= ?x4613 ?x10173))))
 ))
 (let (($x11202 (forall ((n (_ BitVec 6)) )(let ((?x4953 (stack_s x_0 x_1 x_2 2 n)))
 (let ((?x9199 (stack_s x_0 x_1 x_2 3 n)))
 (let ((?x218 (sc_s 2)))
 (let ((?x6417 (bvadd (_ bv61 6) ?x218)))
 (let (($x742 (bvsle ?x6417 n)))
 (or $x742 (= ?x9199 ?x4953))))))))
 ))
 (let (($x5593 (= ?x275 (bvadd (_ bv1 6) (sc_s 2)))))
 (let ((?x10693 (used_gas_s x_0 x_1 x_2 3)))
 (let ((?x218 (sc_s 2)))
 (let ((?x6867 (bvadd (_ bv63 6) ?x218)))
 (let ((?x11114 (stack_s x_0 x_1 x_2 2 ?x6867)))
 (let ((?x1112 (bvadd (_ bv62 6) ?x218)))
 (let ((?x9328 (stack_s x_0 x_1 x_2 2 ?x1112)))
 (let ((?x6417 (bvadd (_ bv61 6) ?x218)))
 (let ((?x11838 (stack_s x_0 x_1 x_2 2 ?x6417)))
 (let (($x8227 (= $x247 (or (exc_halt_s 1) (not (bvsle (_ bv0 6) (bvadd (_ bv61 6) (sc_s 1))))))))
 (let (($x2757 (forall ((w (_ BitVec 256)) )(let ((?x10479 (storage_s x_0 x_1 x_2 1 w)))
 (let ((?x10173 (storage_s x_0 x_1 x_2 2 w)))
 (= ?x10173 ?x10479))))
 ))
 (let (($x443 (forall ((n (_ BitVec 6)) )(let ((?x10957 (stack_s x_0 x_1 x_2 1 n)))
 (let ((?x4953 (stack_s x_0 x_1 x_2 2 n)))
 (let ((?x154 (sc_s 1)))
 (let ((?x2805 (bvadd (_ bv61 6) ?x154)))
 (let (($x984 (bvsle ?x2805 n)))
 (or $x984 (= ?x4953 ?x10957))))))))
 ))
 (let ((?x154 (sc_s 1)))
 (let (($x10727 (= ?x218 ?x154)))
 (let ((?x2050 (used_gas_s x_0 x_1 x_2 2)))
 (let (($x7202 (not (= ((_ extract 6 6) (bvadd (_ bv1 7) (concat (_ bv0 1) ?x72))) (_ bv0 1)))))
 (let (($x189 (exc_halt_s 1)))
 (let (($x10522 (= $x189 (or $x57 (not (bvsle (_ bv0 6) (bvadd (_ bv61 6) ?x72))) $x7202))))
 (let (($x5312 (forall ((w (_ BitVec 256)) )(let ((?x8426 (storage_s x_0 x_1 x_2 0 w)))
 (let ((?x10479 (storage_s x_0 x_1 x_2 1 w)))
 (= ?x10479 ?x8426))))
 ))
 (let (($x5097 (forall ((n (_ BitVec 6)) )(let ((?x1056 (stack_s x_0 x_1 x_2 0 n)))
 (let ((?x10957 (stack_s x_0 x_1 x_2 1 n)))
 (let ((?x72 (sc_s 0)))
 (let ((?x5298 (bvadd (_ bv61 6) ?x72)))
 (let (($x1410 (bvsle ?x5298 n)))
 (or $x1410 (= ?x10957 ?x1056))))))))
 ))
 (let (($x5696 (= ?x154 (bvadd (_ bv1 6) ?x72))))
 (let (($x5995 (= (stack_s x_0 x_1 x_2 1 (bvadd (_ bv63 6) ?x72)) (stack_s x_0 x_1 x_2 0 (bvadd (_ bv63 6) ?x72)))))
 (let (($x7302 (= (stack_s x_0 x_1 x_2 1 (bvadd (_ bv62 6) ?x72)) (stack_s x_0 x_1 x_2 0 (bvadd (_ bv62 6) ?x72)))))
 (let ((?x5298 (bvadd (_ bv61 6) ?x72)))
 (let ((?x1250 (stack_s x_0 x_1 x_2 0 ?x5298)))
 (let (($x452 (forall ((w (_ BitVec 256)) )(let ((?x8426 (storage_s x_0 x_1 x_2 0 w)))
 (= ?x8426 (_ bv0 256))))
 ))
 (let (($x2449 (= ?x3840 0)))
 (let (($x7631 (not $x57)))
 (let (($x8234 (= (stack_s x_0 x_1 x_2 0 (_ bv2 6)) x_2)))
 (let (($x4931 (= (stack_s x_0 x_1 x_2 0 (_ bv1 6)) x_1)))
 (let (($x3147 (= (stack_s x_0 x_1 x_2 0 (_ bv0 6)) x_0)))
 (let (($x6044 (= ?x72 (_ bv3 6))))
 (and $x6044 $x3147 $x4931 $x8234 $x7631 $x2449 $x452 (= (stack_s x_0 x_1 x_2 1 (bvadd (_ bv63 6) ?x154)) ?x1250) (= (stack_s x_0 x_1 x_2 1 ?x5298) ?x1250) $x7302 $x5995 (= (used_gas_s x_0 x_1 x_2 1) (+ 3 ?x3840)) $x5696 $x5097 $x5312 $x10522 (= ?x11114 (stack_s x_0 x_1 x_2 1 (bvadd (_ bv61 6) ?x154))) (= ?x11838 (stack_s x_0 x_1 x_2 1 (bvadd (_ bv63 6) ?x154))) (= ?x9328 (stack_s x_0 x_1 x_2 1 (bvadd (_ bv62 6) ?x154))) (= ?x2050 (+ 3 (used_gas_s x_0 x_1 x_2 1))) $x10727 $x443 $x2757 $x8227 (= (stack_s x_0 x_1 x_2 3 (bvadd (_ bv63 6) ?x275)) ?x11838) (= (stack_s x_0 x_1 x_2 3 ?x6417) ?x11838) (= (stack_s x_0 x_1 x_2 3 ?x1112) ?x9328) (= (stack_s x_0 x_1 x_2 3 ?x6867) ?x11114) (= ?x10693 (+ 3 ?x2050)) $x5593 $x11202 $x11404 $x9013 (= ?x6435 (stack_s x_0 x_1 x_2 3 (bvadd (_ bv61 6) ?x275))) (= ?x7693 (stack_s x_0 x_1 x_2 3 (bvadd (_ bv63 6) ?x275))) (= ?x9131 (stack_s x_0 x_1 x_2 3 (bvadd (_ bv62 6) ?x275))) (= ?x1269 (+ 3 ?x10693)) $x1480 $x4106 $x8146 $x1666 (= ?x435 ?x7693) (= (stack_s x_0 x_1 x_2 5 ?x6818) ?x7693) (= (stack_s x_0 x_1 x_2 5 ?x2417) ?x9131) (= (stack_s x_0 x_1 x_2 5 ?x6098) ?x6435) (= ?x2692 (+ 3 ?x1269)) $x7619 $x9854 $x8073 $x8113 $x4502 (= (stack_s x_0 x_1 x_2 6 (bvadd (_ bv61 6) ?x926)) ?x435) $x7809 $x4099 $x9052 $x11843 $x4551 $x3213 (= ?x2783 ?x9184) (= (stack_t x_0 x_1 x_2 1 ?x8751) ?x9184) $x6934 $x1188 (= (used_gas_t x_0 x_1 x_2 1) (+ 3 ?x6003)) $x10065 $x7820 $x5050 (= $x8377 (or $x56 (not (bvsle (_ bv0 6) ?x8751)) $x10372)) (= (stack_t x_0 x_1 x_2 2 (bvadd (_ bv63 6) ?x2714)) ?x6248) (= (stack_t x_0 x_1 x_2 2 ?x6638) ?x6248) $x4280 $x7790 (= (stack_t x_0 x_1 x_2 2 ?x2146) ?x2783) (= ?x173 (+ 3 (used_gas_t x_0 x_1 x_2 1))) $x8154 $x8557 $x2336 (= $x2163 (or $x2331 (not (bvsle (_ bv0 6) ?x6638)) $x8377)) (= ?x5562 (stack_t x_0 x_1 x_2 2 (bvadd (_ bv61 6) ?x2714))) (= ?x4102 (stack_t x_0 x_1 x_2 2 (bvadd (_ bv63 6) ?x2714))) (= ?x6844 (stack_t x_0 x_1 x_2 2 (bvadd (_ bv62 6) ?x2714))) (= ?x1941 (+ 3 ?x173)) $x6801 $x5123 $x10244 $x1330 (= ?x8153 ?x9113) (= (stack_t x_0 x_1 x_2 4 ?x10451) ?x9113) $x7364 (= (stack_t x_0 x_1 x_2 4 ?x9107) ?x4102) (= (stack_t x_0 x_1 x_2 4 ?x9235) ?x6844) (= (stack_t x_0 x_1 x_2 4 ?x5320) ?x5562) (= ?x3517 (+ 3 ?x1941)) $x11075 $x4006 $x10392 (= $x7854 (or $x6783 $x9074 (not (bvsle (_ bv0 6) ?x10451)))) $x3833 (= (stack_t x_0 x_1 x_2 5 (bvadd (_ bv59 6) ?x8961)) ?x8153) $x6944 $x5010 $x2691 $x650 $x9587 $x1674 $x10855 $x8233 $x73 $x6472 $x58 $x1556 $x10790 (not (and $x5889 $x210 $x11108 $x9518)))))))))))))))))))))))))))))))))))))))))))))))))))))))))))))))))))))))))))))))))))))))))))))))))))))))))))))))))))))))))))))))))))))))))))))))))))))
 )
(check-sat)
(get-proof)
